sat_in/bonus/31.wcnf
p wcnf 16 59 17
1 -1 0
1 -2 0
1 -3 0
1 -4 0
1 -5 0
1 -6 0
1 -7 0
1 -8 0
1 -9 0
1 -10 0
1 -11 0
1 -12 0
1 -13 0
1 -14 0
1 -15 0
1 -16 0
17 1 2 0
17 1 16 0
17 2 4 0
17 2 6 0
17 2 8 0
17 2 12 0
17 2 14 0
17 2 15 0
17 3 9 0
17 4 8 0
17 4 11 0
17 4 12 0
17 4 15 0
17 4 16 0
17 5 8 0
17 5 9 0
17 5 10 0
17 5 11 0
17 5 12 0
17 5 14 0
17 5 15 0
17 5 16 0
17 6 7 0
17 6 10 0
17 6 15 0
17 7 12 0
17 7 13 0
17 7 15 0
17 8 14 0
17 8 15 0
17 9 12 0
17 9 13 0
17 9 15 0
17 9 16 0
17 10 13 0
17 10 14 0
17 11 13 0
17 11 14 0
17 12 13 0
17 12 15 0
17 13 14 0
17 13 15 0
17 13 16 0
