sat_in/task3/31.cnf
p cnf 96 2016
1 2 3 4 5 6 7 8 9 10 11 12 13 14 15 16 0
-1 -2 0
-1 -3 0
-1 -4 0
-1 -5 0
-1 -6 0
-1 -7 0
-1 -8 0
-1 -9 0
-1 -10 0
-1 -11 0
-1 -12 0
-1 -13 0
-1 -14 0
-1 -15 0
-1 -16 0
-2 -3 0
-2 -4 0
-2 -5 0
-2 -6 0
-2 -7 0
-2 -8 0
-2 -9 0
-2 -10 0
-2 -11 0
-2 -12 0
-2 -13 0
-2 -14 0
-2 -15 0
-2 -16 0
-3 -4 0
-3 -5 0
-3 -6 0
-3 -7 0
-3 -8 0
-3 -9 0
-3 -10 0
-3 -11 0
-3 -12 0
-3 -13 0
-3 -14 0
-3 -15 0
-3 -16 0
-4 -5 0
-4 -6 0
-4 -7 0
-4 -8 0
-4 -9 0
-4 -10 0
-4 -11 0
-4 -12 0
-4 -13 0
-4 -14 0
-4 -15 0
-4 -16 0
-5 -6 0
-5 -7 0
-5 -8 0
-5 -9 0
-5 -10 0
-5 -11 0
-5 -12 0
-5 -13 0
-5 -14 0
-5 -15 0
-5 -16 0
-6 -7 0
-6 -8 0
-6 -9 0
-6 -10 0
-6 -11 0
-6 -12 0
-6 -13 0
-6 -14 0
-6 -15 0
-6 -16 0
-7 -8 0
-7 -9 0
-7 -10 0
-7 -11 0
-7 -12 0
-7 -13 0
-7 -14 0
-7 -15 0
-7 -16 0
-8 -9 0
-8 -10 0
-8 -11 0
-8 -12 0
-8 -13 0
-8 -14 0
-8 -15 0
-8 -16 0
-9 -10 0
-9 -11 0
-9 -12 0
-9 -13 0
-9 -14 0
-9 -15 0
-9 -16 0
-10 -11 0
-10 -12 0
-10 -13 0
-10 -14 0
-10 -15 0
-10 -16 0
-11 -12 0
-11 -13 0
-11 -14 0
-11 -15 0
-11 -16 0
-12 -13 0
-12 -14 0
-12 -15 0
-12 -16 0
-13 -14 0
-13 -15 0
-13 -16 0
-14 -15 0
-14 -16 0
-15 -16 0
17 18 19 20 21 22 23 24 25 26 27 28 29 30 31 32 0
-17 -18 0
-17 -19 0
-17 -20 0
-17 -21 0
-17 -22 0
-17 -23 0
-17 -24 0
-17 -25 0
-17 -26 0
-17 -27 0
-17 -28 0
-17 -29 0
-17 -30 0
-17 -31 0
-17 -32 0
-18 -19 0
-18 -20 0
-18 -21 0
-18 -22 0
-18 -23 0
-18 -24 0
-18 -25 0
-18 -26 0
-18 -27 0
-18 -28 0
-18 -29 0
-18 -30 0
-18 -31 0
-18 -32 0
-19 -20 0
-19 -21 0
-19 -22 0
-19 -23 0
-19 -24 0
-19 -25 0
-19 -26 0
-19 -27 0
-19 -28 0
-19 -29 0
-19 -30 0
-19 -31 0
-19 -32 0
-20 -21 0
-20 -22 0
-20 -23 0
-20 -24 0
-20 -25 0
-20 -26 0
-20 -27 0
-20 -28 0
-20 -29 0
-20 -30 0
-20 -31 0
-20 -32 0
-21 -22 0
-21 -23 0
-21 -24 0
-21 -25 0
-21 -26 0
-21 -27 0
-21 -28 0
-21 -29 0
-21 -30 0
-21 -31 0
-21 -32 0
-22 -23 0
-22 -24 0
-22 -25 0
-22 -26 0
-22 -27 0
-22 -28 0
-22 -29 0
-22 -30 0
-22 -31 0
-22 -32 0
-23 -24 0
-23 -25 0
-23 -26 0
-23 -27 0
-23 -28 0
-23 -29 0
-23 -30 0
-23 -31 0
-23 -32 0
-24 -25 0
-24 -26 0
-24 -27 0
-24 -28 0
-24 -29 0
-24 -30 0
-24 -31 0
-24 -32 0
-25 -26 0
-25 -27 0
-25 -28 0
-25 -29 0
-25 -30 0
-25 -31 0
-25 -32 0
-26 -27 0
-26 -28 0
-26 -29 0
-26 -30 0
-26 -31 0
-26 -32 0
-27 -28 0
-27 -29 0
-27 -30 0
-27 -31 0
-27 -32 0
-28 -29 0
-28 -30 0
-28 -31 0
-28 -32 0
-29 -30 0
-29 -31 0
-29 -32 0
-30 -31 0
-30 -32 0
-31 -32 0
33 34 35 36 37 38 39 40 41 42 43 44 45 46 47 48 0
-33 -34 0
-33 -35 0
-33 -36 0
-33 -37 0
-33 -38 0
-33 -39 0
-33 -40 0
-33 -41 0
-33 -42 0
-33 -43 0
-33 -44 0
-33 -45 0
-33 -46 0
-33 -47 0
-33 -48 0
-34 -35 0
-34 -36 0
-34 -37 0
-34 -38 0
-34 -39 0
-34 -40 0
-34 -41 0
-34 -42 0
-34 -43 0
-34 -44 0
-34 -45 0
-34 -46 0
-34 -47 0
-34 -48 0
-35 -36 0
-35 -37 0
-35 -38 0
-35 -39 0
-35 -40 0
-35 -41 0
-35 -42 0
-35 -43 0
-35 -44 0
-35 -45 0
-35 -46 0
-35 -47 0
-35 -48 0
-36 -37 0
-36 -38 0
-36 -39 0
-36 -40 0
-36 -41 0
-36 -42 0
-36 -43 0
-36 -44 0
-36 -45 0
-36 -46 0
-36 -47 0
-36 -48 0
-37 -38 0
-37 -39 0
-37 -40 0
-37 -41 0
-37 -42 0
-37 -43 0
-37 -44 0
-37 -45 0
-37 -46 0
-37 -47 0
-37 -48 0
-38 -39 0
-38 -40 0
-38 -41 0
-38 -42 0
-38 -43 0
-38 -44 0
-38 -45 0
-38 -46 0
-38 -47 0
-38 -48 0
-39 -40 0
-39 -41 0
-39 -42 0
-39 -43 0
-39 -44 0
-39 -45 0
-39 -46 0
-39 -47 0
-39 -48 0
-40 -41 0
-40 -42 0
-40 -43 0
-40 -44 0
-40 -45 0
-40 -46 0
-40 -47 0
-40 -48 0
-41 -42 0
-41 -43 0
-41 -44 0
-41 -45 0
-41 -46 0
-41 -47 0
-41 -48 0
-42 -43 0
-42 -44 0
-42 -45 0
-42 -46 0
-42 -47 0
-42 -48 0
-43 -44 0
-43 -45 0
-43 -46 0
-43 -47 0
-43 -48 0
-44 -45 0
-44 -46 0
-44 -47 0
-44 -48 0
-45 -46 0
-45 -47 0
-45 -48 0
-46 -47 0
-46 -48 0
-47 -48 0
49 50 51 52 53 54 55 56 57 58 59 60 61 62 63 64 0
-49 -50 0
-49 -51 0
-49 -52 0
-49 -53 0
-49 -54 0
-49 -55 0
-49 -56 0
-49 -57 0
-49 -58 0
-49 -59 0
-49 -60 0
-49 -61 0
-49 -62 0
-49 -63 0
-49 -64 0
-50 -51 0
-50 -52 0
-50 -53 0
-50 -54 0
-50 -55 0
-50 -56 0
-50 -57 0
-50 -58 0
-50 -59 0
-50 -60 0
-50 -61 0
-50 -62 0
-50 -63 0
-50 -64 0
-51 -52 0
-51 -53 0
-51 -54 0
-51 -55 0
-51 -56 0
-51 -57 0
-51 -58 0
-51 -59 0
-51 -60 0
-51 -61 0
-51 -62 0
-51 -63 0
-51 -64 0
-52 -53 0
-52 -54 0
-52 -55 0
-52 -56 0
-52 -57 0
-52 -58 0
-52 -59 0
-52 -60 0
-52 -61 0
-52 -62 0
-52 -63 0
-52 -64 0
-53 -54 0
-53 -55 0
-53 -56 0
-53 -57 0
-53 -58 0
-53 -59 0
-53 -60 0
-53 -61 0
-53 -62 0
-53 -63 0
-53 -64 0
-54 -55 0
-54 -56 0
-54 -57 0
-54 -58 0
-54 -59 0
-54 -60 0
-54 -61 0
-54 -62 0
-54 -63 0
-54 -64 0
-55 -56 0
-55 -57 0
-55 -58 0
-55 -59 0
-55 -60 0
-55 -61 0
-55 -62 0
-55 -63 0
-55 -64 0
-56 -57 0
-56 -58 0
-56 -59 0
-56 -60 0
-56 -61 0
-56 -62 0
-56 -63 0
-56 -64 0
-57 -58 0
-57 -59 0
-57 -60 0
-57 -61 0
-57 -62 0
-57 -63 0
-57 -64 0
-58 -59 0
-58 -60 0
-58 -61 0
-58 -62 0
-58 -63 0
-58 -64 0
-59 -60 0
-59 -61 0
-59 -62 0
-59 -63 0
-59 -64 0
-60 -61 0
-60 -62 0
-60 -63 0
-60 -64 0
-61 -62 0
-61 -63 0
-61 -64 0
-62 -63 0
-62 -64 0
-63 -64 0
65 66 67 68 69 70 71 72 73 74 75 76 77 78 79 80 0
-65 -66 0
-65 -67 0
-65 -68 0
-65 -69 0
-65 -70 0
-65 -71 0
-65 -72 0
-65 -73 0
-65 -74 0
-65 -75 0
-65 -76 0
-65 -77 0
-65 -78 0
-65 -79 0
-65 -80 0
-66 -67 0
-66 -68 0
-66 -69 0
-66 -70 0
-66 -71 0
-66 -72 0
-66 -73 0
-66 -74 0
-66 -75 0
-66 -76 0
-66 -77 0
-66 -78 0
-66 -79 0
-66 -80 0
-67 -68 0
-67 -69 0
-67 -70 0
-67 -71 0
-67 -72 0
-67 -73 0
-67 -74 0
-67 -75 0
-67 -76 0
-67 -77 0
-67 -78 0
-67 -79 0
-67 -80 0
-68 -69 0
-68 -70 0
-68 -71 0
-68 -72 0
-68 -73 0
-68 -74 0
-68 -75 0
-68 -76 0
-68 -77 0
-68 -78 0
-68 -79 0
-68 -80 0
-69 -70 0
-69 -71 0
-69 -72 0
-69 -73 0
-69 -74 0
-69 -75 0
-69 -76 0
-69 -77 0
-69 -78 0
-69 -79 0
-69 -80 0
-70 -71 0
-70 -72 0
-70 -73 0
-70 -74 0
-70 -75 0
-70 -76 0
-70 -77 0
-70 -78 0
-70 -79 0
-70 -80 0
-71 -72 0
-71 -73 0
-71 -74 0
-71 -75 0
-71 -76 0
-71 -77 0
-71 -78 0
-71 -79 0
-71 -80 0
-72 -73 0
-72 -74 0
-72 -75 0
-72 -76 0
-72 -77 0
-72 -78 0
-72 -79 0
-72 -80 0
-73 -74 0
-73 -75 0
-73 -76 0
-73 -77 0
-73 -78 0
-73 -79 0
-73 -80 0
-74 -75 0
-74 -76 0
-74 -77 0
-74 -78 0
-74 -79 0
-74 -80 0
-75 -76 0
-75 -77 0
-75 -78 0
-75 -79 0
-75 -80 0
-76 -77 0
-76 -78 0
-76 -79 0
-76 -80 0
-77 -78 0
-77 -79 0
-77 -80 0
-78 -79 0
-78 -80 0
-79 -80 0
81 82 83 84 85 86 87 88 89 90 91 92 93 94 95 96 0
-81 -82 0
-81 -83 0
-81 -84 0
-81 -85 0
-81 -86 0
-81 -87 0
-81 -88 0
-81 -89 0
-81 -90 0
-81 -91 0
-81 -92 0
-81 -93 0
-81 -94 0
-81 -95 0
-81 -96 0
-82 -83 0
-82 -84 0
-82 -85 0
-82 -86 0
-82 -87 0
-82 -88 0
-82 -89 0
-82 -90 0
-82 -91 0
-82 -92 0
-82 -93 0
-82 -94 0
-82 -95 0
-82 -96 0
-83 -84 0
-83 -85 0
-83 -86 0
-83 -87 0
-83 -88 0
-83 -89 0
-83 -90 0
-83 -91 0
-83 -92 0
-83 -93 0
-83 -94 0
-83 -95 0
-83 -96 0
-84 -85 0
-84 -86 0
-84 -87 0
-84 -88 0
-84 -89 0
-84 -90 0
-84 -91 0
-84 -92 0
-84 -93 0
-84 -94 0
-84 -95 0
-84 -96 0
-85 -86 0
-85 -87 0
-85 -88 0
-85 -89 0
-85 -90 0
-85 -91 0
-85 -92 0
-85 -93 0
-85 -94 0
-85 -95 0
-85 -96 0
-86 -87 0
-86 -88 0
-86 -89 0
-86 -90 0
-86 -91 0
-86 -92 0
-86 -93 0
-86 -94 0
-86 -95 0
-86 -96 0
-87 -88 0
-87 -89 0
-87 -90 0
-87 -91 0
-87 -92 0
-87 -93 0
-87 -94 0
-87 -95 0
-87 -96 0
-88 -89 0
-88 -90 0
-88 -91 0
-88 -92 0
-88 -93 0
-88 -94 0
-88 -95 0
-88 -96 0
-89 -90 0
-89 -91 0
-89 -92 0
-89 -93 0
-89 -94 0
-89 -95 0
-89 -96 0
-90 -91 0
-90 -92 0
-90 -93 0
-90 -94 0
-90 -95 0
-90 -96 0
-91 -92 0
-91 -93 0
-91 -94 0
-91 -95 0
-91 -96 0
-92 -93 0
-92 -94 0
-92 -95 0
-92 -96 0
-93 -94 0
-93 -95 0
-93 -96 0
-94 -95 0
-94 -96 0
-95 -96 0
-1 -17 0
-1 -33 0
-1 -49 0
-1 -65 0
-1 -81 0
-17 -33 0
-17 -49 0
-17 -65 0
-17 -81 0
-33 -49 0
-33 -65 0
-33 -81 0
-49 -65 0
-49 -81 0
-65 -81 0
-2 -18 0
-2 -34 0
-2 -50 0
-2 -66 0
-2 -82 0
-18 -34 0
-18 -50 0
-18 -66 0
-18 -82 0
-34 -50 0
-34 -66 0
-34 -82 0
-50 -66 0
-50 -82 0
-66 -82 0
-3 -19 0
-3 -35 0
-3 -51 0
-3 -67 0
-3 -83 0
-19 -35 0
-19 -51 0
-19 -67 0
-19 -83 0
-35 -51 0
-35 -67 0
-35 -83 0
-51 -67 0
-51 -83 0
-67 -83 0
-4 -20 0
-4 -36 0
-4 -52 0
-4 -68 0
-4 -84 0
-20 -36 0
-20 -52 0
-20 -68 0
-20 -84 0
-36 -52 0
-36 -68 0
-36 -84 0
-52 -68 0
-52 -84 0
-68 -84 0
-5 -21 0
-5 -37 0
-5 -53 0
-5 -69 0
-5 -85 0
-21 -37 0
-21 -53 0
-21 -69 0
-21 -85 0
-37 -53 0
-37 -69 0
-37 -85 0
-53 -69 0
-53 -85 0
-69 -85 0
-6 -22 0
-6 -38 0
-6 -54 0
-6 -70 0
-6 -86 0
-22 -38 0
-22 -54 0
-22 -70 0
-22 -86 0
-38 -54 0
-38 -70 0
-38 -86 0
-54 -70 0
-54 -86 0
-70 -86 0
-7 -23 0
-7 -39 0
-7 -55 0
-7 -71 0
-7 -87 0
-23 -39 0
-23 -55 0
-23 -71 0
-23 -87 0
-39 -55 0
-39 -71 0
-39 -87 0
-55 -71 0
-55 -87 0
-71 -87 0
-8 -24 0
-8 -40 0
-8 -56 0
-8 -72 0
-8 -88 0
-24 -40 0
-24 -56 0
-24 -72 0
-24 -88 0
-40 -56 0
-40 -72 0
-40 -88 0
-56 -72 0
-56 -88 0
-72 -88 0
-9 -25 0
-9 -41 0
-9 -57 0
-9 -73 0
-9 -89 0
-25 -41 0
-25 -57 0
-25 -73 0
-25 -89 0
-41 -57 0
-41 -73 0
-41 -89 0
-57 -73 0
-57 -89 0
-73 -89 0
-10 -26 0
-10 -42 0
-10 -58 0
-10 -74 0
-10 -90 0
-26 -42 0
-26 -58 0
-26 -74 0
-26 -90 0
-42 -58 0
-42 -74 0
-42 -90 0
-58 -74 0
-58 -90 0
-74 -90 0
-11 -27 0
-11 -43 0
-11 -59 0
-11 -75 0
-11 -91 0
-27 -43 0
-27 -59 0
-27 -75 0
-27 -91 0
-43 -59 0
-43 -75 0
-43 -91 0
-59 -75 0
-59 -91 0
-75 -91 0
-12 -28 0
-12 -44 0
-12 -60 0
-12 -76 0
-12 -92 0
-28 -44 0
-28 -60 0
-28 -76 0
-28 -92 0
-44 -60 0
-44 -76 0
-44 -92 0
-60 -76 0
-60 -92 0
-76 -92 0
-13 -29 0
-13 -45 0
-13 -61 0
-13 -77 0
-13 -93 0
-29 -45 0
-29 -61 0
-29 -77 0
-29 -93 0
-45 -61 0
-45 -77 0
-45 -93 0
-61 -77 0
-61 -93 0
-77 -93 0
-14 -30 0
-14 -46 0
-14 -62 0
-14 -78 0
-14 -94 0
-30 -46 0
-30 -62 0
-30 -78 0
-30 -94 0
-46 -62 0
-46 -78 0
-46 -94 0
-62 -78 0
-62 -94 0
-78 -94 0
-15 -31 0
-15 -47 0
-15 -63 0
-15 -79 0
-15 -95 0
-31 -47 0
-31 -63 0
-31 -79 0
-31 -95 0
-47 -63 0
-47 -79 0
-47 -95 0
-63 -79 0
-63 -95 0
-79 -95 0
-16 -32 0
-16 -48 0
-16 -64 0
-16 -80 0
-16 -96 0
-32 -48 0
-32 -64 0
-32 -80 0
-32 -96 0
-48 -64 0
-48 -80 0
-48 -96 0
-64 -80 0
-64 -96 0
-80 -96 0
-1 -18 0
-17 -2 0
-1 -34 0
-33 -2 0
-1 -50 0
-49 -2 0
-1 -66 0
-65 -2 0
-1 -82 0
-81 -2 0
-17 -34 0
-33 -18 0
-17 -50 0
-49 -18 0
-17 -66 0
-65 -18 0
-17 -82 0
-81 -18 0
-33 -50 0
-49 -34 0
-33 -66 0
-65 -34 0
-33 -82 0
-81 -34 0
-49 -66 0
-65 -50 0
-49 -82 0
-81 -50 0
-65 -82 0
-81 -66 0
-1 -32 0
-17 -16 0
-1 -48 0
-33 -16 0
-1 -64 0
-49 -16 0
-1 -80 0
-65 -16 0
-1 -96 0
-81 -16 0
-17 -48 0
-33 -32 0
-17 -64 0
-49 -32 0
-17 -80 0
-65 -32 0
-17 -96 0
-81 -32 0
-33 -64 0
-49 -48 0
-33 -80 0
-65 -48 0
-33 -96 0
-81 -48 0
-49 -80 0
-65 -64 0
-49 -96 0
-81 -64 0
-65 -96 0
-81 -80 0
-2 -20 0
-18 -4 0
-2 -36 0
-34 -4 0
-2 -52 0
-50 -4 0
-2 -68 0
-66 -4 0
-2 -84 0
-82 -4 0
-18 -36 0
-34 -20 0
-18 -52 0
-50 -20 0
-18 -68 0
-66 -20 0
-18 -84 0
-82 -20 0
-34 -52 0
-50 -36 0
-34 -68 0
-66 -36 0
-34 -84 0
-82 -36 0
-50 -68 0
-66 -52 0
-50 -84 0
-82 -52 0
-66 -84 0
-82 -68 0
-2 -22 0
-18 -6 0
-2 -38 0
-34 -6 0
-2 -54 0
-50 -6 0
-2 -70 0
-66 -6 0
-2 -86 0
-82 -6 0
-18 -38 0
-34 -22 0
-18 -54 0
-50 -22 0
-18 -70 0
-66 -22 0
-18 -86 0
-82 -22 0
-34 -54 0
-50 -38 0
-34 -70 0
-66 -38 0
-34 -86 0
-82 -38 0
-50 -70 0
-66 -54 0
-50 -86 0
-82 -54 0
-66 -86 0
-82 -70 0
-2 -24 0
-18 -8 0
-2 -40 0
-34 -8 0
-2 -56 0
-50 -8 0
-2 -72 0
-66 -8 0
-2 -88 0
-82 -8 0
-18 -40 0
-34 -24 0
-18 -56 0
-50 -24 0
-18 -72 0
-66 -24 0
-18 -88 0
-82 -24 0
-34 -56 0
-50 -40 0
-34 -72 0
-66 -40 0
-34 -88 0
-82 -40 0
-50 -72 0
-66 -56 0
-50 -88 0
-82 -56 0
-66 -88 0
-82 -72 0
-2 -28 0
-18 -12 0
-2 -44 0
-34 -12 0
-2 -60 0
-50 -12 0
-2 -76 0
-66 -12 0
-2 -92 0
-82 -12 0
-18 -44 0
-34 -28 0
-18 -60 0
-50 -28 0
-18 -76 0
-66 -28 0
-18 -92 0
-82 -28 0
-34 -60 0
-50 -44 0
-34 -76 0
-66 -44 0
-34 -92 0
-82 -44 0
-50 -76 0
-66 -60 0
-50 -92 0
-82 -60 0
-66 -92 0
-82 -76 0
-2 -30 0
-18 -14 0
-2 -46 0
-34 -14 0
-2 -62 0
-50 -14 0
-2 -78 0
-66 -14 0
-2 -94 0
-82 -14 0
-18 -46 0
-34 -30 0
-18 -62 0
-50 -30 0
-18 -78 0
-66 -30 0
-18 -94 0
-82 -30 0
-34 -62 0
-50 -46 0
-34 -78 0
-66 -46 0
-34 -94 0
-82 -46 0
-50 -78 0
-66 -62 0
-50 -94 0
-82 -62 0
-66 -94 0
-82 -78 0
-2 -31 0
-18 -15 0
-2 -47 0
-34 -15 0
-2 -63 0
-50 -15 0
-2 -79 0
-66 -15 0
-2 -95 0
-82 -15 0
-18 -47 0
-34 -31 0
-18 -63 0
-50 -31 0
-18 -79 0
-66 -31 0
-18 -95 0
-82 -31 0
-34 -63 0
-50 -47 0
-34 -79 0
-66 -47 0
-34 -95 0
-82 -47 0
-50 -79 0
-66 -63 0
-50 -95 0
-82 -63 0
-66 -95 0
-82 -79 0
-3 -25 0
-19 -9 0
-3 -41 0
-35 -9 0
-3 -57 0
-51 -9 0
-3 -73 0
-67 -9 0
-3 -89 0
-83 -9 0
-19 -41 0
-35 -25 0
-19 -57 0
-51 -25 0
-19 -73 0
-67 -25 0
-19 -89 0
-83 -25 0
-35 -57 0
-51 -41 0
-35 -73 0
-67 -41 0
-35 -89 0
-83 -41 0
-51 -73 0
-67 -57 0
-51 -89 0
-83 -57 0
-67 -89 0
-83 -73 0
-4 -24 0
-20 -8 0
-4 -40 0
-36 -8 0
-4 -56 0
-52 -8 0
-4 -72 0
-68 -8 0
-4 -88 0
-84 -8 0
-20 -40 0
-36 -24 0
-20 -56 0
-52 -24 0
-20 -72 0
-68 -24 0
-20 -88 0
-84 -24 0
-36 -56 0
-52 -40 0
-36 -72 0
-68 -40 0
-36 -88 0
-84 -40 0
-52 -72 0
-68 -56 0
-52 -88 0
-84 -56 0
-68 -88 0
-84 -72 0
-4 -27 0
-20 -11 0
-4 -43 0
-36 -11 0
-4 -59 0
-52 -11 0
-4 -75 0
-68 -11 0
-4 -91 0
-84 -11 0
-20 -43 0
-36 -27 0
-20 -59 0
-52 -27 0
-20 -75 0
-68 -27 0
-20 -91 0
-84 -27 0
-36 -59 0
-52 -43 0
-36 -75 0
-68 -43 0
-36 -91 0
-84 -43 0
-52 -75 0
-68 -59 0
-52 -91 0
-84 -59 0
-68 -91 0
-84 -75 0
-4 -28 0
-20 -12 0
-4 -44 0
-36 -12 0
-4 -60 0
-52 -12 0
-4 -76 0
-68 -12 0
-4 -92 0
-84 -12 0
-20 -44 0
-36 -28 0
-20 -60 0
-52 -28 0
-20 -76 0
-68 -28 0
-20 -92 0
-84 -28 0
-36 -60 0
-52 -44 0
-36 -76 0
-68 -44 0
-36 -92 0
-84 -44 0
-52 -76 0
-68 -60 0
-52 -92 0
-84 -60 0
-68 -92 0
-84 -76 0
-4 -31 0
-20 -15 0
-4 -47 0
-36 -15 0
-4 -63 0
-52 -15 0
-4 -79 0
-68 -15 0
-4 -95 0
-84 -15 0
-20 -47 0
-36 -31 0
-20 -63 0
-52 -31 0
-20 -79 0
-68 -31 0
-20 -95 0
-84 -31 0
-36 -63 0
-52 -47 0
-36 -79 0
-68 -47 0
-36 -95 0
-84 -47 0
-52 -79 0
-68 -63 0
-52 -95 0
-84 -63 0
-68 -95 0
-84 -79 0
-4 -32 0
-20 -16 0
-4 -48 0
-36 -16 0
-4 -64 0
-52 -16 0
-4 -80 0
-68 -16 0
-4 -96 0
-84 -16 0
-20 -48 0
-36 -32 0
-20 -64 0
-52 -32 0
-20 -80 0
-68 -32 0
-20 -96 0
-84 -32 0
-36 -64 0
-52 -48 0
-36 -80 0
-68 -48 0
-36 -96 0
-84 -48 0
-52 -80 0
-68 -64 0
-52 -96 0
-84 -64 0
-68 -96 0
-84 -80 0
-5 -24 0
-21 -8 0
-5 -40 0
-37 -8 0
-5 -56 0
-53 -8 0
-5 -72 0
-69 -8 0
-5 -88 0
-85 -8 0
-21 -40 0
-37 -24 0
-21 -56 0
-53 -24 0
-21 -72 0
-69 -24 0
-21 -88 0
-85 -24 0
-37 -56 0
-53 -40 0
-37 -72 0
-69 -40 0
-37 -88 0
-85 -40 0
-53 -72 0
-69 -56 0
-53 -88 0
-85 -56 0
-69 -88 0
-85 -72 0
-5 -25 0
-21 -9 0
-5 -41 0
-37 -9 0
-5 -57 0
-53 -9 0
-5 -73 0
-69 -9 0
-5 -89 0
-85 -9 0
-21 -41 0
-37 -25 0
-21 -57 0
-53 -25 0
-21 -73 0
-69 -25 0
-21 -89 0
-85 -25 0
-37 -57 0
-53 -41 0
-37 -73 0
-69 -41 0
-37 -89 0
-85 -41 0
-53 -73 0
-69 -57 0
-53 -89 0
-85 -57 0
-69 -89 0
-85 -73 0
-5 -26 0
-21 -10 0
-5 -42 0
-37 -10 0
-5 -58 0
-53 -10 0
-5 -74 0
-69 -10 0
-5 -90 0
-85 -10 0
-21 -42 0
-37 -26 0
-21 -58 0
-53 -26 0
-21 -74 0
-69 -26 0
-21 -90 0
-85 -26 0
-37 -58 0
-53 -42 0
-37 -74 0
-69 -42 0
-37 -90 0
-85 -42 0
-53 -74 0
-69 -58 0
-53 -90 0
-85 -58 0
-69 -90 0
-85 -74 0
-5 -27 0
-21 -11 0
-5 -43 0
-37 -11 0
-5 -59 0
-53 -11 0
-5 -75 0
-69 -11 0
-5 -91 0
-85 -11 0
-21 -43 0
-37 -27 0
-21 -59 0
-53 -27 0
-21 -75 0
-69 -27 0
-21 -91 0
-85 -27 0
-37 -59 0
-53 -43 0
-37 -75 0
-69 -43 0
-37 -91 0
-85 -43 0
-53 -75 0
-69 -59 0
-53 -91 0
-85 -59 0
-69 -91 0
-85 -75 0
-5 -28 0
-21 -12 0
-5 -44 0
-37 -12 0
-5 -60 0
-53 -12 0
-5 -76 0
-69 -12 0
-5 -92 0
-85 -12 0
-21 -44 0
-37 -28 0
-21 -60 0
-53 -28 0
-21 -76 0
-69 -28 0
-21 -92 0
-85 -28 0
-37 -60 0
-53 -44 0
-37 -76 0
-69 -44 0
-37 -92 0
-85 -44 0
-53 -76 0
-69 -60 0
-53 -92 0
-85 -60 0
-69 -92 0
-85 -76 0
-5 -30 0
-21 -14 0
-5 -46 0
-37 -14 0
-5 -62 0
-53 -14 0
-5 -78 0
-69 -14 0
-5 -94 0
-85 -14 0
-21 -46 0
-37 -30 0
-21 -62 0
-53 -30 0
-21 -78 0
-69 -30 0
-21 -94 0
-85 -30 0
-37 -62 0
-53 -46 0
-37 -78 0
-69 -46 0
-37 -94 0
-85 -46 0
-53 -78 0
-69 -62 0
-53 -94 0
-85 -62 0
-69 -94 0
-85 -78 0
-5 -31 0
-21 -15 0
-5 -47 0
-37 -15 0
-5 -63 0
-53 -15 0
-5 -79 0
-69 -15 0
-5 -95 0
-85 -15 0
-21 -47 0
-37 -31 0
-21 -63 0
-53 -31 0
-21 -79 0
-69 -31 0
-21 -95 0
-85 -31 0
-37 -63 0
-53 -47 0
-37 -79 0
-69 -47 0
-37 -95 0
-85 -47 0
-53 -79 0
-69 -63 0
-53 -95 0
-85 -63 0
-69 -95 0
-85 -79 0
-5 -32 0
-21 -16 0
-5 -48 0
-37 -16 0
-5 -64 0
-53 -16 0
-5 -80 0
-69 -16 0
-5 -96 0
-85 -16 0
-21 -48 0
-37 -32 0
-21 -64 0
-53 -32 0
-21 -80 0
-69 -32 0
-21 -96 0
-85 -32 0
-37 -64 0
-53 -48 0
-37 -80 0
-69 -48 0
-37 -96 0
-85 -48 0
-53 -80 0
-69 -64 0
-53 -96 0
-85 -64 0
-69 -96 0
-85 -80 0
-6 -23 0
-22 -7 0
-6 -39 0
-38 -7 0
-6 -55 0
-54 -7 0
-6 -71 0
-70 -7 0
-6 -87 0
-86 -7 0
-22 -39 0
-38 -23 0
-22 -55 0
-54 -23 0
-22 -71 0
-70 -23 0
-22 -87 0
-86 -23 0
-38 -55 0
-54 -39 0
-38 -71 0
-70 -39 0
-38 -87 0
-86 -39 0
-54 -71 0
-70 -55 0
-54 -87 0
-86 -55 0
-70 -87 0
-86 -71 0
-6 -26 0
-22 -10 0
-6 -42 0
-38 -10 0
-6 -58 0
-54 -10 0
-6 -74 0
-70 -10 0
-6 -90 0
-86 -10 0
-22 -42 0
-38 -26 0
-22 -58 0
-54 -26 0
-22 -74 0
-70 -26 0
-22 -90 0
-86 -26 0
-38 -58 0
-54 -42 0
-38 -74 0
-70 -42 0
-38 -90 0
-86 -42 0
-54 -74 0
-70 -58 0
-54 -90 0
-86 -58 0
-70 -90 0
-86 -74 0
-6 -31 0
-22 -15 0
-6 -47 0
-38 -15 0
-6 -63 0
-54 -15 0
-6 -79 0
-70 -15 0
-6 -95 0
-86 -15 0
-22 -47 0
-38 -31 0
-22 -63 0
-54 -31 0
-22 -79 0
-70 -31 0
-22 -95 0
-86 -31 0
-38 -63 0
-54 -47 0
-38 -79 0
-70 -47 0
-38 -95 0
-86 -47 0
-54 -79 0
-70 -63 0
-54 -95 0
-86 -63 0
-70 -95 0
-86 -79 0
-7 -28 0
-23 -12 0
-7 -44 0
-39 -12 0
-7 -60 0
-55 -12 0
-7 -76 0
-71 -12 0
-7 -92 0
-87 -12 0
-23 -44 0
-39 -28 0
-23 -60 0
-55 -28 0
-23 -76 0
-71 -28 0
-23 -92 0
-87 -28 0
-39 -60 0
-55 -44 0
-39 -76 0
-71 -44 0
-39 -92 0
-87 -44 0
-55 -76 0
-71 -60 0
-55 -92 0
-87 -60 0
-71 -92 0
-87 -76 0
-7 -29 0
-23 -13 0
-7 -45 0
-39 -13 0
-7 -61 0
-55 -13 0
-7 -77 0
-71 -13 0
-7 -93 0
-87 -13 0
-23 -45 0
-39 -29 0
-23 -61 0
-55 -29 0
-23 -77 0
-71 -29 0
-23 -93 0
-87 -29 0
-39 -61 0
-55 -45 0
-39 -77 0
-71 -45 0
-39 -93 0
-87 -45 0
-55 -77 0
-71 -61 0
-55 -93 0
-87 -61 0
-71 -93 0
-87 -77 0
-7 -31 0
-23 -15 0
-7 -47 0
-39 -15 0
-7 -63 0
-55 -15 0
-7 -79 0
-71 -15 0
-7 -95 0
-87 -15 0
-23 -47 0
-39 -31 0
-23 -63 0
-55 -31 0
-23 -79 0
-71 -31 0
-23 -95 0
-87 -31 0
-39 -63 0
-55 -47 0
-39 -79 0
-71 -47 0
-39 -95 0
-87 -47 0
-55 -79 0
-71 -63 0
-55 -95 0
-87 -63 0
-71 -95 0
-87 -79 0
-8 -30 0
-24 -14 0
-8 -46 0
-40 -14 0
-8 -62 0
-56 -14 0
-8 -78 0
-72 -14 0
-8 -94 0
-88 -14 0
-24 -46 0
-40 -30 0
-24 -62 0
-56 -30 0
-24 -78 0
-72 -30 0
-24 -94 0
-88 -30 0
-40 -62 0
-56 -46 0
-40 -78 0
-72 -46 0
-40 -94 0
-88 -46 0
-56 -78 0
-72 -62 0
-56 -94 0
-88 -62 0
-72 -94 0
-88 -78 0
-8 -31 0
-24 -15 0
-8 -47 0
-40 -15 0
-8 -63 0
-56 -15 0
-8 -79 0
-72 -15 0
-8 -95 0
-88 -15 0
-24 -47 0
-40 -31 0
-24 -63 0
-56 -31 0
-24 -79 0
-72 -31 0
-24 -95 0
-88 -31 0
-40 -63 0
-56 -47 0
-40 -79 0
-72 -47 0
-40 -95 0
-88 -47 0
-56 -79 0
-72 -63 0
-56 -95 0
-88 -63 0
-72 -95 0
-88 -79 0
-9 -28 0
-25 -12 0
-9 -44 0
-41 -12 0
-9 -60 0
-57 -12 0
-9 -76 0
-73 -12 0
-9 -92 0
-89 -12 0
-25 -44 0
-41 -28 0
-25 -60 0
-57 -28 0
-25 -76 0
-73 -28 0
-25 -92 0
-89 -28 0
-41 -60 0
-57 -44 0
-41 -76 0
-73 -44 0
-41 -92 0
-89 -44 0
-57 -76 0
-73 -60 0
-57 -92 0
-89 -60 0
-73 -92 0
-89 -76 0
-9 -29 0
-25 -13 0
-9 -45 0
-41 -13 0
-9 -61 0
-57 -13 0
-9 -77 0
-73 -13 0
-9 -93 0
-89 -13 0
-25 -45 0
-41 -29 0
-25 -61 0
-57 -29 0
-25 -77 0
-73 -29 0
-25 -93 0
-89 -29 0
-41 -61 0
-57 -45 0
-41 -77 0
-73 -45 0
-41 -93 0
-89 -45 0
-57 -77 0
-73 -61 0
-57 -93 0
-89 -61 0
-73 -93 0
-89 -77 0
-9 -31 0
-25 -15 0
-9 -47 0
-41 -15 0
-9 -63 0
-57 -15 0
-9 -79 0
-73 -15 0
-9 -95 0
-89 -15 0
-25 -47 0
-41 -31 0
-25 -63 0
-57 -31 0
-25 -79 0
-73 -31 0
-25 -95 0
-89 -31 0
-41 -63 0
-57 -47 0
-41 -79 0
-73 -47 0
-41 -95 0
-89 -47 0
-57 -79 0
-73 -63 0
-57 -95 0
-89 -63 0
-73 -95 0
-89 -79 0
-9 -32 0
-25 -16 0
-9 -48 0
-41 -16 0
-9 -64 0
-57 -16 0
-9 -80 0
-73 -16 0
-9 -96 0
-89 -16 0
-25 -48 0
-41 -32 0
-25 -64 0
-57 -32 0
-25 -80 0
-73 -32 0
-25 -96 0
-89 -32 0
-41 -64 0
-57 -48 0
-41 -80 0
-73 -48 0
-41 -96 0
-89 -48 0
-57 -80 0
-73 -64 0
-57 -96 0
-89 -64 0
-73 -96 0
-89 -80 0
-10 -29 0
-26 -13 0
-10 -45 0
-42 -13 0
-10 -61 0
-58 -13 0
-10 -77 0
-74 -13 0
-10 -93 0
-90 -13 0
-26 -45 0
-42 -29 0
-26 -61 0
-58 -29 0
-26 -77 0
-74 -29 0
-26 -93 0
-90 -29 0
-42 -61 0
-58 -45 0
-42 -77 0
-74 -45 0
-42 -93 0
-90 -45 0
-58 -77 0
-74 -61 0
-58 -93 0
-90 -61 0
-74 -93 0
-90 -77 0
-10 -30 0
-26 -14 0
-10 -46 0
-42 -14 0
-10 -62 0
-58 -14 0
-10 -78 0
-74 -14 0
-10 -94 0
-90 -14 0
-26 -46 0
-42 -30 0
-26 -62 0
-58 -30 0
-26 -78 0
-74 -30 0
-26 -94 0
-90 -30 0
-42 -62 0
-58 -46 0
-42 -78 0
-74 -46 0
-42 -94 0
-90 -46 0
-58 -78 0
-74 -62 0
-58 -94 0
-90 -62 0
-74 -94 0
-90 -78 0
-11 -29 0
-27 -13 0
-11 -45 0
-43 -13 0
-11 -61 0
-59 -13 0
-11 -77 0
-75 -13 0
-11 -93 0
-91 -13 0
-27 -45 0
-43 -29 0
-27 -61 0
-59 -29 0
-27 -77 0
-75 -29 0
-27 -93 0
-91 -29 0
-43 -61 0
-59 -45 0
-43 -77 0
-75 -45 0
-43 -93 0
-91 -45 0
-59 -77 0
-75 -61 0
-59 -93 0
-91 -61 0
-75 -93 0
-91 -77 0
-11 -30 0
-27 -14 0
-11 -46 0
-43 -14 0
-11 -62 0
-59 -14 0
-11 -78 0
-75 -14 0
-11 -94 0
-91 -14 0
-27 -46 0
-43 -30 0
-27 -62 0
-59 -30 0
-27 -78 0
-75 -30 0
-27 -94 0
-91 -30 0
-43 -62 0
-59 -46 0
-43 -78 0
-75 -46 0
-43 -94 0
-91 -46 0
-59 -78 0
-75 -62 0
-59 -94 0
-91 -62 0
-75 -94 0
-91 -78 0
-12 -29 0
-28 -13 0
-12 -45 0
-44 -13 0
-12 -61 0
-60 -13 0
-12 -77 0
-76 -13 0
-12 -93 0
-92 -13 0
-28 -45 0
-44 -29 0
-28 -61 0
-60 -29 0
-28 -77 0
-76 -29 0
-28 -93 0
-92 -29 0
-44 -61 0
-60 -45 0
-44 -77 0
-76 -45 0
-44 -93 0
-92 -45 0
-60 -77 0
-76 -61 0
-60 -93 0
-92 -61 0
-76 -93 0
-92 -77 0
-12 -31 0
-28 -15 0
-12 -47 0
-44 -15 0
-12 -63 0
-60 -15 0
-12 -79 0
-76 -15 0
-12 -95 0
-92 -15 0
-28 -47 0
-44 -31 0
-28 -63 0
-60 -31 0
-28 -79 0
-76 -31 0
-28 -95 0
-92 -31 0
-44 -63 0
-60 -47 0
-44 -79 0
-76 -47 0
-44 -95 0
-92 -47 0
-60 -79 0
-76 -63 0
-60 -95 0
-92 -63 0
-76 -95 0
-92 -79 0
-13 -30 0
-29 -14 0
-13 -46 0
-45 -14 0
-13 -62 0
-61 -14 0
-13 -78 0
-77 -14 0
-13 -94 0
-93 -14 0
-29 -46 0
-45 -30 0
-29 -62 0
-61 -30 0
-29 -78 0
-77 -30 0
-29 -94 0
-93 -30 0
-45 -62 0
-61 -46 0
-45 -78 0
-77 -46 0
-45 -94 0
-93 -46 0
-61 -78 0
-77 -62 0
-61 -94 0
-93 -62 0
-77 -94 0
-93 -78 0
-13 -31 0
-29 -15 0
-13 -47 0
-45 -15 0
-13 -63 0
-61 -15 0
-13 -79 0
-77 -15 0
-13 -95 0
-93 -15 0
-29 -47 0
-45 -31 0
-29 -63 0
-61 -31 0
-29 -79 0
-77 -31 0
-29 -95 0
-93 -31 0
-45 -63 0
-61 -47 0
-45 -79 0
-77 -47 0
-45 -95 0
-93 -47 0
-61 -79 0
-77 -63 0
-61 -95 0
-93 -63 0
-77 -95 0
-93 -79 0
-13 -32 0
-29 -16 0
-13 -48 0
-45 -16 0
-13 -64 0
-61 -16 0
-13 -80 0
-77 -16 0
-13 -96 0
-93 -16 0
-29 -48 0
-45 -32 0
-29 -64 0
-61 -32 0
-29 -80 0
-77 -32 0
-29 -96 0
-93 -32 0
-45 -64 0
-61 -48 0
-45 -80 0
-77 -48 0
-45 -96 0
-93 -48 0
-61 -80 0
-77 -64 0
-61 -96 0
-93 -64 0
-77 -96 0
-93 -80 0
