homework/2/out/bonus/31.out
1 2 4 5 7 9 10 13 14 15 
